29
40
23
0 4
0 7
0 14
0 15
1 2
1 3
1 6
1 9
1 28
2 3
3 7
3 16
4 14
4 15
4 18
6 7
6 9
6 16
6 28
7 16
7 21
7 22
10 16
11 12
11 17
12 17
13 16
14 15
15 18
17 21
17 28
19 20
19 22
19 25
20 22
20 24
21 22
21 28
24 25
26 27
0 1
2
3 4
5
6 7
8
9
10
11
12
13
14
15 16
17
18
19 20
21
22
23
24 25
26
27
28
